p edge 64 256
e 1 61
e 1 53
e 1 28
e 1 55
e 1 48
e 1 16
e 1 2
e 1 22
e 2 41
e 2 34
e 2 9
e 2 20
e 2 10
e 2 42
e 2 37
e 3 49
e 3 46
e 3 21
e 3 11
e 3 20
e 3 15
e 3 56
e 3 19
e 4 18
e 4 47
e 4 10
e 4 51
e 4 35
e 4 62
e 4 28
e 4 37
e 5 31
e 5 33
e 5 60
e 5 62
e 5 32
e 5 7
e 5 11
e 5 29
e 6 13
e 6 31
e 6 33
e 6 42
e 6 53
e 6 41
e 6 59
e 6 43
e 7 58
e 7 46
e 7 50
e 7 16
e 7 20
e 7 47
e 7 61
e 8 11
e 8 29
e 8 54
e 8 58
e 8 14
e 8 32
e 8 50
e 8 25
e 9 33
e 9 26
e 9 62
e 9 21
e 9 57
e 9 36
e 9 31
e 10 11
e 10 59
e 10 43
e 10 46
e 10 39
e 10 14
e 11 25
e 11 40
e 11 56
e 11 60
e 12 24
e 12 54
e 12 17
e 12 49
e 12 53
e 12 37
e 12 30
e 12 18
e 13 43
e 13 36
e 13 20
e 13 60
e 13 51
e 13 47
e 13 42
e 14 18
e 14 27
e 14 63
e 14 53
e 14 23
e 14 50
e 15 50
e 15 29
e 15 59
e 15 22
e 15 31
e 15 56
e 15 48
e 16 40
e 16 17
e 16 64
e 16 30
e 16 57
e 16 27
e 17 23
e 17 50
e 17 34
e 17 59
e 17 31
e 17 53
e 18 52
e 18 35
e 18 39
e 18 27
e 18 38
e 19 45
e 19 24
e 19 55
e 19 64
e 19 21
e 19 30
e 19 41
e 20 32
e 20 34
e 20 38
e 20 59
e 21 57
e 21 25
e 21 36
e 21 61
e 21 63
e 22 51
e 22 55
e 22 50
e 22 34
e 22 61
e 22 54
e 23 27
e 23 31
e 23 49
e 23 58
e 23 35
e 23 30
e 24 44
e 24 48
e 24 45
e 24 29
e 24 51
e 24 60
e 25 54
e 25 47
e 25 64
e 25 39
e 25 57
e 26 35
e 26 28
e 26 57
e 26 59
e 26 52
e 26 56
e 26 58
e 27 53
e 27 37
e 27 29
e 27 38
e 28 44
e 28 55
e 28 48
e 28 41
e 28 38
e 29 52
e 29 54
e 29 55
e 30 33
e 30 60
e 30 46
e 30 59
e 31 44
e 31 33
e 32 39
e 32 59
e 32 36
e 32 45
e 32 38
e 33 44
e 33 46
e 33 64
e 34 46
e 34 48
e 34 45
e 34 63
e 35 63
e 35 40
e 35 55
e 35 48
e 36 43
e 36 61
e 36 37
e 36 41
e 37 56
e 37 60
e 37 52
e 38 42
e 38 51
e 38 46
e 39 63
e 39 49
e 39 51
e 39 60
e 40 52
e 40 47
e 40 63
e 40 62
e 40 41
e 41 43
e 41 58
e 42 45
e 42 51
e 42 53
e 42 57
e 43 58
e 43 57
e 43 63
e 44 57
e 44 52
e 44 45
e 44 54
e 45 64
e 45 56
e 46 49
e 47 49
e 47 51
e 47 61
e 48 54
e 48 62
e 49 64
e 49 50
e 50 56
e 52 62
e 52 56
e 53 61
e 54 62
e 55 63
e 55 64
e 58 60
e 58 61
e 62 64
